c nIsolatedPIs 0
c maxPI 16
p cnf 78 187
c gate 17 2 -10 0
2 -17 0
-10 -17 0
-2 10 17 0
c gate 18 -2 10 0
-2 -18 0
10 -18 0
2 -10 18 0
c gate 19 -17 -18 0
-17 -19 0
-18 -19 0
17 18 19 0
c gate 20 -8 16 0
-8 -20 0
16 -20 0
8 -16 20 0
c gate 21 8 -16 0
8 -21 0
-16 -21 0
-8 16 21 0
c gate 22 7 -15 0
7 -22 0
-15 -22 0
-7 15 22 0
c gate 23 5 -13 0
5 -23 0
-13 -23 0
-5 13 23 0
c gate 24 -5 13 0
-5 -24 0
13 -24 0
5 -13 24 0
c gate 25 -23 -24 0
-23 -25 0
-24 -25 0
23 24 25 0
c gate 26 6 -14 0
6 -26 0
-14 -26 0
-6 14 26 0
c gate 27 -6 14 0
-6 -27 0
14 -27 0
6 -14 27 0
c gate 28 -26 -27 0
-26 -28 0
-27 -28 0
26 27 28 0
c gate 29 25 28 0
25 -29 0
28 -29 0
-25 -28 29 0
c gate 30 -24 -27 0
-24 -30 0
-27 -30 0
24 27 30 0
c gate 31 -26 -30 0
-26 -31 0
-30 -31 0
26 30 31 0
c gate 32 -29 -31 0
-29 -32 0
-31 -32 0
29 31 32 0
c gate 33 -22 -32 0
-22 -33 0
-32 -33 0
22 32 33 0
c gate 34 -7 15 0
-7 -34 0
15 -34 0
7 -15 34 0
c gate 35 -33 -34 0
-33 -35 0
-34 -35 0
33 34 35 0
c gate 36 -21 -35 0
-21 -36 0
-35 -36 0
21 35 36 0
c gate 37 -20 -36 0
-20 -37 0
-36 -37 0
20 36 37 0
c gate 38 -1 9 0
-1 -38 0
9 -38 0
1 -9 38 0
c gate 39 37 -38 0
37 -39 0
-38 -39 0
-37 38 39 0
c gate 40 1 -9 0
1 -40 0
-9 -40 0
-1 9 40 0
c gate 41 -37 -40 0
-37 -41 0
-40 -41 0
37 40 41 0
c gate 42 -39 -41 0
-39 -42 0
-41 -42 0
39 41 42 0
c gate 43 19 42 0
19 -43 0
42 -43 0
-19 -42 43 0
c gate 44 -19 -42 0
-19 -44 0
-42 -44 0
19 42 44 0
c gate 45 -43 -44 0
-43 -45 0
-44 -45 0
43 44 45 0
c gate 46 19 -40 0
19 -46 0
-40 -46 0
-19 40 46 0
c gate 47 -38 46 0
-38 -47 0
46 -47 0
38 -46 47 0
c gate 48 -3 11 0
-3 -48 0
11 -48 0
3 -11 48 0
c gate 49 3 -11 0
3 -49 0
-11 -49 0
-3 11 49 0
c gate 50 -48 -49 0
-48 -50 0
-49 -50 0
48 49 50 0
c gate 51 4 -12 0
4 -51 0
-12 -51 0
-4 12 51 0
c gate 52 -4 12 0
-4 -52 0
12 -52 0
4 -12 52 0
c gate 53 -51 -52 0
-51 -53 0
-52 -53 0
51 52 53 0
c gate 54 50 53 0
50 -54 0
53 -54 0
-50 -53 54 0
c gate 55 47 54 0
47 -55 0
54 -55 0
-47 -54 55 0
c gate 56 -20 -21 0
-20 -56 0
-21 -56 0
20 21 56 0
c gate 57 -22 -34 0
-22 -57 0
-34 -57 0
22 34 57 0
c gate 58 56 57 0
56 -58 0
57 -58 0
-56 -57 58 0
c gate 59 29 58 0
29 -59 0
58 -59 0
-29 -58 59 0
c gate 60 55 59 0
55 -60 0
59 -60 0
-55 -59 60 0
c gate 61 -18 -46 0
-18 -61 0
-46 -61 0
18 46 61 0
c gate 62 50 61 0
50 -62 0
61 -62 0
-50 -61 62 0
c gate 63 -49 -62 0
-49 -63 0
-62 -63 0
49 62 63 0
c gate 64 -52 -63 0
-52 -64 0
-63 -64 0
52 63 64 0
c gate 65 -51 -64 0
-51 -65 0
-64 -65 0
51 64 65 0
c gate 66 59 -65 0
59 -66 0
-65 -66 0
-59 65 66 0
c gate 67 -37 -66 0
-37 -67 0
-66 -67 0
37 66 67 0
c gate 68 -60 -67 0
-60 -68 0
-67 -68 0
60 67 68 0
c gate 69 -38 68 0
-38 -69 0
68 -69 0
38 -68 69 0
c gate 70 -40 -68 0
-40 -70 0
-68 -70 0
40 68 70 0
c gate 71 -69 -70 0
-69 -71 0
-70 -71 0
69 70 71 0
c gate 72 19 71 0
19 -72 0
71 -72 0
-19 -71 72 0
c gate 73 -19 -71 0
-19 -73 0
-71 -73 0
19 71 73 0
c gate 74 -72 -73 0
-72 -74 0
-73 -74 0
72 73 74 0
c gate 75 45 -74 0
45 -75 0
-74 -75 0
-45 74 75 0
c gate 76 -37 -47 0
-37 -76 0
-47 -76 0
37 47 76 0
c gate 77 66 76 0
66 -77 0
76 -77 0
-66 -76 77 0
c gate 78 -75 77 0
-75 -78 0
77 -78 0
75 -77 78 0
c PO
78 0
